\ File written by Highs .lp filereader
min
 obj: +4 x0 +4 x1 +1 x2 +0 x3 +0 x4 
st
 con0: +8 x0 +8 x1 +4 x2 = +4
 con1: +8 x0 +12 x1 = +4
 con2: +4 x0 +1 x2 = +1
 con3: +1 x0 -1 x1 -1 x3 = +0
 con4: +1 x0 -1 x2 -1 x4 = +0
bounds
 +0 <= x0 <= +1
 +0 <= x1 <= +1
 +0 <= x2 <= +1
 +0 <= x3 <= +0
 +0 <= x4 <= +0
end
